
******************************************************************************
This program contains Ipopt, a library for large-scale nonlinear optimization.
 Ipopt is released as open source code under the Eclipse Public License (EPL).
         For more information visit http://projects.coin-or.org/Ipopt
******************************************************************************

This is Ipopt version 3.12.6, running with linear solver ma57.

Number of nonzeros in equality constraint Jacobian...:        0
Number of nonzeros in inequality constraint Jacobian.:        0
Number of nonzeros in Lagrangian Hessian.............:     9999

Total number of variables............................:     5000
                     variables with only lower bounds:        0
                variables with lower and upper bounds:        0
                     variables with only upper bounds:        0
Total number of equality constraints.................:        0
Total number of inequality constraints...............:        0
        inequality constraints with only lower bounds:        0
   inequality constraints with lower and upper bounds:        0
        inequality constraints with only upper bounds:        0

iter    objective    inf_pr   inf_du lg(mu)  ||d||  lg(rg) alpha_du alpha_pr  ls
   0  6.5610000e-01 0.00e+00 1.00e+02  -1.0 0.00e+00    -  0.00e+00 0.00e+00   0
   1 -5.1410254e+01 0.00e+00 1.00e+02  -1.0 1.00e-02   4.0 1.00e+00 1.00e+00f  1
   2 -2.0818302e+02 0.00e+00 9.99e+01  -1.0 3.00e-02   3.5 1.00e+00 1.00e+00f  1
   3 -6.8324678e+02 0.00e+00 9.92e+01  -1.0 8.96e-02   3.0 1.00e+00 1.00e+00f  1
   4 -2.2574727e+03 0.00e+00 9.25e+01  -1.0 2.59e-01   2.6 1.00e+00 1.00e+00f  1
   5 -2.9044083e+03 0.00e+00 8.88e+01  -1.0 9.02e-02   3.0 1.00e+00 1.00e+00f  1
   6 -7.4616479e+03 0.00e+00 1.84e+02  -1.0 5.59e-01   2.5 1.00e+00 1.00e+00f  1
   7 -1.0618581e+04 0.00e+00 2.38e+02  -1.0 2.71e-01   2.9 1.00e+00 1.00e+00f  1
   8 -7.4441326e+04 0.00e+00 7.46e+02  -1.0 2.56e+00   2.5 1.00e+00 1.00e+00f  1
   9 -1.2994874e+05 0.00e+00 9.91e+02  -1.0 1.27e+00   2.9 1.00e+00 1.00e+00f  1
iter    objective    inf_pr   inf_du lg(mu)  ||d||  lg(rg) alpha_du alpha_pr  ls
  10 -1.6021882e+06 0.00e+00 2.79e+03  -1.0 1.42e+01   2.4 1.00e+00 1.00e+00f  1
  11 -2.3254646e+06 0.00e+00 5.01e+03  -1.0 5.14e+01   1.9 1.00e+00 5.00e-01f  2
  12 -3.1843293e+06 0.00e+00 1.71e+03  -1.0 5.10e+00   2.4 1.00e+00 1.00e+00f  1
  13 -3.2975809e+06 0.00e+00 9.39e+02  -1.0 1.46e+00   2.8 1.00e+00 1.00e+00f  1
  14 -3.3245214e+06 0.00e+00 7.21e+02  -1.0 4.37e-01   3.2 1.00e+00 1.00e+00f  1
  15 -3.3967556e+06 0.00e+00 7.92e+02  -1.0 1.58e+00   2.7 1.00e+00 1.00e+00f  1
  16 -3.8961400e+06 0.00e+00 1.32e+03  -1.0 9.12e+00   2.3 1.00e+00 1.00e+00f  1
  17 -4.7763060e+06 0.00e+00 6.73e+03  -1.0 8.47e+01   1.8 1.00e+00 5.00e-01f  2
  18 -6.2233856e+06 0.00e+00 3.88e+03  -1.0 1.27e+01    -  1.00e+00 1.00e+00f  1
  19 -6.7132539e+06 0.00e+00 4.81e+02  -1.0 5.16e+00    -  1.00e+00 1.00e+00f  1
iter    objective    inf_pr   inf_du lg(mu)  ||d||  lg(rg) alpha_du alpha_pr  ls
  20 -6.7462209e+06 0.00e+00 4.15e+02  -1.0 1.68e+01    -  1.00e+00 1.25e-01f  4
  21 -6.7566817e+06 0.00e+00 5.16e+01  -1.0 9.69e-01    -  1.00e+00 1.00e+00f  1
  22 -6.7570138e+06 0.00e+00 1.44e-01  -1.0 1.31e-01    -  1.00e+00 1.00e+00f  1
  23 -6.7570138e+06 0.00e+00 2.90e-06  -2.5 4.42e-04    -  1.00e+00 1.00e+00f  1
  24 -6.7570138e+06 0.00e+00 1.45e-06  -8.6 7.81e-09    -  1.00e+00 5.00e-01f  2
  25 -6.7570138e+06 0.00e+00 1.43e-06  -8.6 3.91e-09    -  1.00e+00 1.56e-02f  7
  26 -6.7570138e+06 0.00e+00 1.43e-06  -8.6 3.85e-09    -  1.00e+00 2.44e-04f 13
  27 -6.7570138e+06 0.00e+00 1.43e-06  -8.6 3.85e-09    -  1.00e+00 1.22e-04f 14
  28 -6.7570138e+06 0.00e+00 1.43e-06  -8.6 3.84e-09    -  1.00e+00 3.81e-06f 19
  29 -6.7570138e+06 0.00e+00 1.43e-06  -8.6 3.84e-09    -  1.00e+00 1.91e-06f 20
iter    objective    inf_pr   inf_du lg(mu)  ||d||  lg(rg) alpha_du alpha_pr  ls
  30 -6.7570138e+06 0.00e+00 1.43e-06  -8.6 3.84e-09    -  1.00e+00 1.91e-06f 20
  31 -6.7570138e+06 0.00e+00 1.43e-06  -8.6 3.84e-09    -  1.00e+00 1.91e-06f 20
  32 -6.7570138e+06 0.00e+00 1.43e-06  -8.6 3.84e-09    -  1.00e+00 1.91e-06f 20
  33 -6.7570138e+06 0.00e+00 1.43e-06  -8.6 3.84e-09    -  1.00e+00 1.91e-06f 20
  34 -6.7570138e+06 0.00e+00 1.85e-10  -8.6 3.84e-09    -  1.00e+00 1.00e+00w  1

Number of Iterations....: 34

                                   (scaled)                 (unscaled)
Objective...............:  -1.3519435288785637e+05   -6.7570137573350612e+06
Dual infeasibility......:   1.8470130498189719e-10    9.2313712229952216e-09
Constraint violation....:   0.0000000000000000e+00    0.0000000000000000e+00
Complementarity.........:   0.0000000000000000e+00    0.0000000000000000e+00
Overall NLP error.......:   1.8470130498189719e-10    9.2313712229952216e-09


Number of objective function evaluations             = 237
Number of objective gradient evaluations             = 35
Number of equality constraint evaluations            = 0
Number of inequality constraint evaluations          = 0
Number of equality constraint Jacobian evaluations   = 0
Number of inequality constraint Jacobian evaluations = 0
Number of Lagrangian Hessian evaluations             = 34
Total CPU secs in IPOPT (w/o function evaluations)   =      0.100
Total CPU secs in NLP function evaluations           =      0.190

EXIT: Optimal Solution Found.

 ** SUBROUTINE CUTEST_csetup: Warning. The problem has no general constraints. 
 ** Other tools may be preferable ** 

************************ CUTEst statistics ************************


 Package used            :  IPOPT
 Problem                 :  SINQUAD   
 # variables             =            5000
 # constraints           =               0
 # objective functions   =        0.2730000E+03
 # objective gradients   =        0.3600000E+02
 # objective Hessians    =        0.3500000E+02
 # Hessian-vector prdct  =        0.0000000E+00
 # constraints functions =        0.0000000E+00
 # constraints gradients =        0.0000000E+00
 # constraints Hessians  =        0.0000000E+00
 Exit code               =               0
 Final f                 =  -0.6757014E+07
 Set up time             =            0.39 seconds
 Solve time              =            0.30 seconds


******************************************************************

System Time =       0.2980000079 s.
